
Gurobi 7.5.2 (win64, Python) logging started 01/18/18 23:41:56

Academic license - for non-commercial use only

Gurobi 7.5.2 (win64, Python) logging started 01/18/18 23:46:53

Academic license - for non-commercial use only

Gurobi 7.5.2 (win64, Python) logging started 01/18/18 23:49:18

Academic license - for non-commercial use only

Gurobi 7.5.2 (win64, Python) logging started 01/19/18 11:48:20

Academic license - for non-commercial use only
